1 2
2 2
3 2
4 1
5 2
6 1
7 1
8 2
9 2
10 2
11 1
12 1
13 1
14 1
15 2
16 2
17 2
18 1
19 1
20 1
21 1
22 2
23 2
24 1
25 1
26 1
27 2
28 2
29 2
30 2
31 2
32 2
33 2
34 1
35 1
36 1
37 2
38 2
39 2
40 1
41 1
42 1
43 1
44 2
45 2
46 1
47 1
48 2
49 2
50 2
51 1
52 1
53 1
54 1
55 2
56 1
57 2
58 2
59 2
60 1
61 2
62 2
63 2
64 1
65 2
66 1
67 1
68 1
69 2
70 1
71 1
72 2
73 2
74 2
75 2
76 2
77 1
78 2
79 1
80 1
81 2
82 2
83 1
84 2
85 1
86 2
87 1
88 1
89 1
90 2
91 1
92 1
93 2
94 2
95 2
96 2
97 1
98 2
99 1
100 2
101 2
102 1
103 1
104 2
105 2
106 1
107 2
108 2
109 2
110 2
111 1
112 2
113 2
114 1
115 2
116 2
117 2
118 1
119 1
120 2
121 2
122 1
123 2
124 1
125 2
126 2
127 2
128 1
129 2
130 2
131 2
132 1
133 1
134 1
135 1
136 2
137 1
138 2
139 2
140 2
141 2
142 1
143 2
144 1
145 2
146 1
147 2
148 2
149 2
150 2
151 2
152 2
153 1
154 1
155 2
156 2
157 2
158 2
159 2
160 2
161 1
162 1
163 1
164 2
165 1
166 1
167 2
168 2
169 1
170 2
171 1
172 1
173 1
174 2
175 2
176 1
177 1
178 2
179 1
180 1
181 1
182 1
183 2
184 1
185 1
186 1
187 1
188 1
189 2
190 1
191 2
192 1
193 2
194 2
195 2
196 1
197 1
198 2
199 2
200 1
201 1
202 1
203 1
204 1
205 1
206 2
207 1
208 2
209 2
210 2
211 1
212 2
213 2
214 1
215 2
216 2
217 1
218 2
219 2
220 1
221 2
222 2
223 1
224 1
225 1
226 1
227 2
228 1
229 2
230 2
231 1
232 1
233 1
234 2
235 2
236 2
237 1
238 2
239 1
240 2
241 1
242 2
243 2
244 2
245 1
246 2
247 2
248 1
249 1
250 1
251 1
252 1
253 2
254 1
255 1
256 1
257 1
258 2
259 1
260 2
261 1
262 1
263 2
264 2
265 1
266 2
267 1
268 1
269 1
270 2
271 1
272 1
273 2
274 1
275 1
276 2
277 1
278 1
279 1
280 2
281 1
282 2
283 1
284 1
285 2
286 2
287 1
288 1
289 1
290 2
291 2
292 2
293 2
294 2
295 2
296 1
297 2
298 1
299 1
300 2
